(set-logic QF_S)
(declare-fun V29 () String )
(declare-fun V10 () String )
(declare-fun V28 () String )
(declare-fun V33 () String )
(declare-fun V22 () String )
(declare-fun V21 () String )
(declare-fun V11 () String )
(declare-fun V17 () String )
(declare-fun V14 () String )
(declare-fun V25 () String )
(declare-fun V4 () String )
(declare-fun V45 () String )
(declare-fun V9 () String )
(declare-fun V8 () String )
(declare-fun V27 () String )
(declare-fun V18 () String )
(declare-fun V46 () String )
(declare-fun V13 () String )
(declare-fun V7 () String )
(declare-fun V3 () String )
(declare-fun V36 () String )
(declare-fun V0 () String )
(declare-fun V43 () String )
(declare-fun V6 () String )
(declare-fun V32 () String )
(declare-fun V1 () String )
(declare-fun V20 () String )
(declare-fun V26 () String )
(declare-fun V37 () String )
(declare-fun V35 () String )
(declare-fun V12 () String )
(declare-fun V31 () String )
(declare-fun V16 () String )
(declare-fun V23 () String )
(declare-fun V41 () String )
(declare-fun V15 () String )
(declare-fun V47 () String )
(declare-fun V48 () String )
(declare-fun V30 () String )
(declare-fun V19 () String )
(declare-fun V38 () String )
(declare-fun V24 () String )
(declare-fun V42 () String )
(declare-fun V34 () String )
(declare-fun V44 () String )
(declare-fun V5 () String )
(declare-fun V2 () String )
(assert (= "" "P" ) )
(assert (= "" V18 ) )
(assert (= ":" V10 ) )
(assert (= "A" V0 ) )
(assert (= "P" V9 ) )
(assert (= "S" V8 ) )
(assert (= "U" V5 ) )
(assert (= V25 V35 ) )
(assert (= V41 V26 ) )
(assert (= V41 (str.++ "p" V26 ) ) )
(assert (= V42 V29 ) )
(assert (= V42 (str.++ "s" V29 ) ) )
(assert (= V6 (str.++ (str.++ V43 "u" ) V44 ) ) )
(assert (= V31 (str.++ (str.++ V43 "U" ) V44 ) ) )
(assert (= V2 (str.++ (str.++ V47 "A" ) V48 ) ) )
(assert (= V28 (str.++ (str.++ V47 "a" ) V48 ) ) )
(assert (= V4 (str.++ (str.++ V14 V15 ) V16 ) ) )
(assert (= V4 (str.++ (str.++ V17 V18 ) V19 ) ) )
(assert (= V4 (str.++ (str.++ V20 "A" ) V21 ) ) )
(assert (= V4 (str.++ (str.++ V1 V2 ) V3 ) ) )
(assert (= V13 (str.++ (str.++ V11 V4 ) V12 ) ) )
(assert (= V13 (str.++ (str.++ V23 "://" ) V24 ) ) )
(assert (= V13 (str.++ "mongodb://" V22 ) ) )
(assert (= (str.++ V6 V7 ) "localhost" ) )
(assert (= (str.++ V28 V15 ) (str.++ (str.++ V45 "U" ) V46 ) ) )
(assert (= (str.++ V28 V15 ) (str.++ (str.++ V25 V26 ) V27 ) ) )
(assert (= (str.++ V28 V15 ) (str.++ (str.++ V25 V29 ) V30 ) ) )
(assert (= (str.++ V28 V15 ) (str.++ (str.++ V25 V31 ) V32 ) ) )
(assert (= (str.++ V28 V15 ) (str.++ (str.++ V37 V38 ) V34 ) ) )
(assert (= (str.++ V28 V15 ) (str.++ (str.++ V35 V36 ) V34 ) ) )
(assert (= (str.++ V28 V15 ) (str.++ (str.++ V33 V7 ) V34 ) ) )
( check-sat )
